1000
1000
699
699
699
698
698
698
698
698
697
696
694
693
693
692
692
691
691
691
690
689
689
688
688
688
687
686
686
686
685
685
684
683
683
683
682
681
681
680
678
678
677
677
677
676
676
675
674
673
673
673
672
672
672
672
671
671
670
669
669
669
668
668
668
667
667
667
666
665
664
664
664
663
663
663
663
663
662
661
661
660
660
659
659
658
658
657
657
656
656
655
654
654
654
653
653
652
652
652
651
651
651
649
648
648
647
647
646
646
645
645
645
645
645
644
643
643
643
639
639
639
637
636
636
636
635
634
634
633
633
632
632
632
632
632
631
631
630
630
630
630
629
629
629
629
628
628
627
626
626
626
625
625
624
624
624
623
622
622
622
622
621
621
620
620
619
618
617
616
615
614
614
613
613
613
612
612
611
611
610
610
610
610
609
609
609
609
609
609
609
609
608
607
607
606
606
605
605
605
603
603
602
602
602
602
601
601
601
601
601
601
600
600
600
600
599
599
599
598
598
598
598
597
596
596
596
596
595
594
593
593
593
592
589
588
588
587
587
586
586
585
584
584
583
581
581
580
580
578
578
577
577
576
576
576
576
575
575
574
574
574
574
573
573
573
572
572
571
571
570
570
569
568
568
568
567
566
566
566
565
565
564
563
563
562
562
562
562
561
561
560
559
558
558
558
558
557
557
557
556
556
556
555
554
552
550
549
548
548
547
546
546
546
546
545
545
545
543
543
543
543
542
542
541
541
541
541
540
539
538
538
537
537
537
536
536
535
535
534
534
534
533
532
532
531
531
531
530
529
529
529
529
529
528
528
527
527
527
527
527
526
526
525
525
523
522
522
522
521
521
521
521
520
520
520
519
519
518
518
516
516
513
513
513
513
512
511
511
510
509
509
509
508
508
508
507
507
507
506
506
505
505
504
504
504
503
503
503
502
502
502
501
501
500
500
500
500
499
495
494
494
493
493
493
492
492
492
492
491
491
490
489
489
489
488
488
488
487
486
486
485
484
484
483
483
482
482
482
481
481
480
480
480
479
479
479
478
478
477
477
476
476
475
473
473
472
472
471
471
471
471
470
470
470
470
470
470
469
469
468
468
468
467
467
466
466
466
465
465
465
464
464
463
463
462
462
462
461
461
461
461
461
460
460
459
458
457
457
457
457
457
456
456
455
454
454
454
454
453
453
453
453
452
451
451
451
450
450
450
449
449
448
448
448
446
446
444
442
442
441
441
440
439
438
438
438
438
437
437
437
436
436
435
435
435
435
435
435
435
434
433
432
432
430
429
429
428
427
425
425
424
424
423
422
422
421
421
421
421
421
421
420
420
416
416
416
416
415
414
413
412
412
411
411
410
409
409
409
409
407
407
406
406
406
405
405
405
405
404
404
404
404
403
403
402
401
399
399
398
398
398
397
397
397
395
394
394
394
393
392
392
392
392
392
391
391
391
391
390
389
389
389
388
387
386
386
385
384
383
382
382
382
382
381
380
380
379
379
379
378
378
377
377
377
377
376
376
376
376
376
375
374
374
374
373
373
373
373
372
372
372
372
371
371
371
371
370
368
368
368
368
367
366
366
365
365
365
364
363
362
361
360
359
359
358
357
357
356
355
354
354
353
353
353
352
352
352
351
351
350
350
350
349
349
349
348
347
347
347
347
346
345
345
345
344
344
344
344
343
343
343
342
342
339
337
337
337
337
336
336
335
334
332
332
332
331
331
330
330
330
327
326
326
326
325
325
325
325
324
322
322
321
320
318
318
317
315
315
314
314
314
313
312
311
311
311
310
309
309
306
306
306
305
304
304
300
298
298
298
298
298
297
297
297
297
296
296
296
296
294
294
294
293
293
292
292
291
291
290
290
289
289
288
288
287
287
287
286
286
286
285
285
285
285
285
285
285
284
283
283
283
282
282
282
282
281
281
280
280
279
279
278
278
277
277
277
276
276
276
275
273
273
273
273
272
272
272
271
271
270
268
267
267
266
265
265
265
264
264
264
263
263
262
261
261
261
261
261
261
261
261
260
259
259
259
259
259
259
258
258
258
258
257
257
256
256
256
256
253
253
252
252
252
251
251
250
249
248
248
248
247
247
247
245
245
245
243
243
243
241
240
240
239
239
238
238
237
237
236
235
235
234
234
234
233
233
233
233
230
229
227
226
225
225
225
224
224
224
223
222
222
222
222
222
221
221
221
220
220
220
220
219
219
218
217
217
216
216
215
215
214
214
213
213
211
210
210
208
208
208
208
206
204
204
204
203
203
203
202
201
200
